experiments/knapsack_bounded/knapsack_bounded_30_10.mps
NAME
ROWS
 N  OBJ
 L  c1
 L  c2
 L  c3
 L  c4
 L  c5
 L  c6
 L  c7
 L  c8
 L  c9
 L  c10
 L  c11
 L  c12
 L  c13
 L  c14
 L  c15
 L  c16
 L  c17
 L  c18
 L  c19
 L  c20
 L  c21
 L  c22
 L  c23
 L  c24
 L  c25
 L  c26
 L  c27
 L  c28
 L  c29
 L  c30
 L  c31
COLUMNS
    MARKER    'MARKER'                 'INTORG'
    x[1]      c1        552
    x[1]      c2        1
    x[1]      OBJ       -469
    x[2]      c1        845
    x[2]      c3        1
    x[2]      OBJ       -147
    x[3]      c1        959
    x[3]      c4        1
    x[3]      OBJ       -967
    x[4]      c1        827
    x[4]      c5        1
    x[4]      OBJ       -358
    x[5]      c1        155
    x[5]      c6        1
    x[5]      OBJ       -401
    x[6]      c1        790
    x[6]      c7        1
    x[6]      OBJ       -154
    x[7]      c1        439
    x[7]      c8        1
    x[7]      OBJ       -191
    x[8]      c1        287
    x[8]      c9        1
    x[8]      OBJ       -326
    x[9]      c1        622
    x[9]      c10       1
    x[9]      OBJ       -711
    x[10]     c1        927
    x[10]     c11       1
    x[10]     OBJ       -916
    x[11]     c1        364
    x[11]     c12       1
    x[11]     OBJ       -386
    x[12]     c1        984
    x[12]     c13       1
    x[12]     OBJ       -864
    x[13]     c1        646
    x[13]     c14       1
    x[13]     OBJ       -279
    x[14]     c1        777
    x[14]     c15       1
    x[14]     OBJ       -30
    x[15]     c1        569
    x[15]     c16       1
    x[15]     OBJ       -784
    x[16]     c1        302
    x[16]     c17       1
    x[16]     OBJ       -207
    x[17]     c1        151
    x[17]     c18       1
    x[17]     OBJ       -235
    x[18]     c1        518
    x[18]     c19       1
    x[18]     OBJ       -517
    x[19]     c1        426
    x[19]     c20       1
    x[19]     OBJ       -557
    x[20]     c1        167
    x[20]     c21       1
    x[20]     OBJ       -316
    x[21]     c1        589
    x[21]     c22       1
    x[21]     OBJ       -861
    x[22]     c1        543
    x[22]     c23       1
    x[22]     OBJ       -435
    x[23]     c1        693
    x[23]     c24       1
    x[23]     OBJ       -829
    x[24]     c1        363
    x[24]     c25       1
    x[24]     OBJ       -923
    x[25]     c1        418
    x[25]     c26       1
    x[25]     OBJ       -812
    x[26]     c1        888
    x[26]     c27       1
    x[26]     OBJ       -971
    x[27]     c1        779
    x[27]     c28       1
    x[27]     OBJ       -278
    x[28]     c1        931
    x[28]     c29       1
    x[28]     OBJ       -132
    x[29]     c1        94
    x[29]     c30       1
    x[29]     OBJ       -77
    x[30]     c1        350
    x[30]     c31       1
    x[30]     OBJ       -381
    MARKER    'MARKER'                 'INTEND'
RHS
    rhs       c1        8478
    rhs       c2        5
    rhs       c3        3
    rhs       c4        4
    rhs       c5        2
    rhs       c6        7
    rhs       c7        9
    rhs       c8        8
    rhs       c9        2
    rhs       c10       6
    rhs       c11       4
    rhs       c12       5
    rhs       c13       2
    rhs       c14       1
    rhs       c15       1
    rhs       c16       1
    rhs       c17       5
    rhs       c18       8
    rhs       c19       8
    rhs       c20       5
    rhs       c21       5
    rhs       c22       10
    rhs       c23       6
    rhs       c24       6
    rhs       c25       4
    rhs       c26       6
    rhs       c27       4
    rhs       c28       8
    rhs       c29       9
    rhs       c30       6
    rhs       c31       3
RANGES
BOUNDS
 LO bounds    x[1]      0
 PL bounds    x[1]
 LO bounds    x[2]      0
 PL bounds    x[2]
 LO bounds    x[3]      0
 PL bounds    x[3]
 LO bounds    x[4]      0
 PL bounds    x[4]
 LO bounds    x[5]      0
 PL bounds    x[5]
 LO bounds    x[6]      0
 PL bounds    x[6]
 LO bounds    x[7]      0
 PL bounds    x[7]
 LO bounds    x[8]      0
 PL bounds    x[8]
 LO bounds    x[9]      0
 PL bounds    x[9]
 LO bounds    x[10]     0
 PL bounds    x[10]
 LO bounds    x[11]     0
 PL bounds    x[11]
 LO bounds    x[12]     0
 PL bounds    x[12]
 LO bounds    x[13]     0
 PL bounds    x[13]
 LO bounds    x[14]     0
 PL bounds    x[14]
 LO bounds    x[15]     0
 PL bounds    x[15]
 LO bounds    x[16]     0
 PL bounds    x[16]
 LO bounds    x[17]     0
 PL bounds    x[17]
 LO bounds    x[18]     0
 PL bounds    x[18]
 LO bounds    x[19]     0
 PL bounds    x[19]
 LO bounds    x[20]     0
 PL bounds    x[20]
 LO bounds    x[21]     0
 PL bounds    x[21]
 LO bounds    x[22]     0
 PL bounds    x[22]
 LO bounds    x[23]     0
 PL bounds    x[23]
 LO bounds    x[24]     0
 PL bounds    x[24]
 LO bounds    x[25]     0
 PL bounds    x[25]
 LO bounds    x[26]     0
 PL bounds    x[26]
 LO bounds    x[27]     0
 PL bounds    x[27]
 LO bounds    x[28]     0
 PL bounds    x[28]
 LO bounds    x[29]     0
 PL bounds    x[29]
 LO bounds    x[30]     0
 PL bounds    x[30]
ENDATA
